
******************************************************************************
This program contains Ipopt, a library for large-scale nonlinear optimization.
 Ipopt is released as open source code under the Eclipse Public License (EPL).
         For more information visit http://projects.coin-or.org/Ipopt
******************************************************************************

This is Ipopt version 3.12.6, running with linear solver ma57.

Number of nonzeros in equality constraint Jacobian...:        0
Number of nonzeros in inequality constraint Jacobian.:    22491
Number of nonzeros in Lagrangian Hessian.............:    19993

Total number of variables............................:     9997
                     variables with only lower bounds:        0
                variables with lower and upper bounds:        0
                     variables with only upper bounds:        0
Total number of equality constraints.................:        0
Total number of inequality constraints...............:     7497
        inequality constraints with only lower bounds:     2499
   inequality constraints with lower and upper bounds:        0
        inequality constraints with only upper bounds:     4998

iter    objective    inf_pr   inf_du lg(mu)  ||d||  lg(rg) alpha_du alpha_pr  ls
   0  6.4239594e+09 1.26e+03 1.00e+02  -1.0 0.00e+00    -  0.00e+00 0.00e+00   0
   1  1.3197234e+09 2.76e+03 4.27e+03  -1.0 1.36e+02   0.0 1.99e-02 1.00e+00f  1
   2  1.2883217e+09 2.60e+03 4.03e+03  -1.0 3.10e+02  -0.5 6.36e-03 5.75e-02f  1
   3  1.2818555e+09 2.20e+03 3.39e+03  -1.0 1.04e+02  -0.1 1.03e-02 1.60e-01f  1
   4  1.3529182e+09 2.00e+03 3.03e+03  -1.0 2.78e+01   1.3 2.09e-01 9.55e-02h  1
   5  1.4044495e+09 1.94e+03 2.89e+03  -1.0 3.89e+01   1.7 4.06e-02 3.14e-02h  1
   6  1.4050571e+09 1.94e+03 2.89e+03  -1.0 4.39e+01   1.2 9.93e-03 4.70e-04h  1
   7  1.4075732e+09 1.93e+03 2.88e+03  -1.0 5.03e+01   1.7 5.21e-03 2.77e-03h  1
   8  1.4030948e+09 1.93e+03 2.87e+03  -1.0 1.13e+02   1.2 1.08e-03 2.14e-03f  1
   9  1.4011804e+09 1.92e+03 2.87e+03  -1.0 1.06e+02   1.6 2.00e-03 1.12e-03f  1
iter    objective    inf_pr   inf_du lg(mu)  ||d||  lg(rg) alpha_du alpha_pr  ls
  10  1.3507718e+09 1.89e+03 2.81e+03  -1.0 1.44e+02   1.1 2.36e-03 1.67e-02f  1
  11  1.3080927e+09 1.84e+03 2.74e+03  -1.0 1.59e+02   0.6 5.28e-03 2.57e-02f  1
  12  1.3077455e+09 1.84e+03 5.43e+03  -1.0 1.46e+02   2.0 5.55e-02 2.73e-04f  1
  13  1.3094605e+09 1.84e+03 7.15e+03  -1.0 2.15e+02   1.5 4.21e-02 3.22e-03h  1
  14  1.3134305e+09 1.83e+03 1.28e+04  -1.0 2.15e+02   1.9 4.83e-02 3.46e-03h  1
  15  1.3220882e+09 1.82e+03 1.43e+04  -1.0 2.15e+02   1.4 6.09e-02 7.85e-03h  1
  16  1.3275539e+09 1.81e+03 1.69e+04  -1.0 2.15e+02   1.9 3.09e-02 4.13e-03h  1
  17  1.3459777e+09 1.79e+03 5.18e+04  -1.0 2.15e+02   2.3 1.33e-01 1.27e-02h  1
  18  1.5013885e+09 1.62e+03 4.43e+04  -1.0 1.96e+02   1.8 1.89e-02 9.70e-02h  1
  19  1.4756221e+09 1.59e+03 3.53e+04  -1.0 2.66e+02   2.2 6.13e-02 1.48e-02f  1
iter    objective    inf_pr   inf_du lg(mu)  ||d||  lg(rg) alpha_du alpha_pr  ls
  20  1.5239377e+09 1.55e+03 2.66e+04  -1.0 2.83e+02   2.7 6.14e-02 2.81e-02h  1
  21  1.5238299e+09 1.55e+03 8.18e+05  -1.0 1.10e+02   4.9 2.42e-02 1.40e-05h  1
  22  1.5164355e+09 1.55e+03 1.32e+07  -1.0 9.61e+01   4.4 9.90e-01 1.00e-03f  1
  23  1.0907030e+09 1.43e+03 1.17e+07  -1.0 1.68e+02   4.0 1.53e-01 7.61e-02f  1
  24  1.0911276e+09 1.43e+03 1.16e+07  -1.0 1.24e+02   4.4 3.82e-01 7.10e-04h  1
  25  1.0913899e+09 1.43e+03 1.14e+07  -1.0 1.36e+02   3.9 3.25e-02 4.57e-04h  1
  26  1.1031534e+09 1.40e+03 1.14e+07  -1.0 1.25e+02   4.3 1.15e-01 1.90e-02h  1
  27  1.1421711e+09 1.32e+03 1.10e+07  -1.0 2.37e+02   3.9 2.05e-02 6.02e-02h  1
  28  1.1427868e+09 1.32e+03 1.80e+07  -1.0 1.25e+02   6.1 1.01e-02 6.65e-04h  1
  29r 1.1427868e+09 1.32e+03 1.00e+03   3.1 0.00e+00   5.6 0.00e+00 4.16e-07R  5
iter    objective    inf_pr   inf_du lg(mu)  ||d||  lg(rg) alpha_du alpha_pr  ls
  30r 1.1355954e+09 1.29e+03 8.27e+02   3.1 9.38e+05    -  4.27e-01 4.75e-05f  1
  31r 5.6884659e+08 8.20e+02 4.77e+02   3.1 8.95e+03    -  4.57e-01 1.38e-01f  1
  32  5.1361294e+08 7.37e+02 2.31e+01  -1.0 9.36e+03    -  4.69e-01 1.05e-01f  1
  33  4.4165358e+08 6.39e+02 2.00e+01  -1.0 8.07e+03    -  3.06e-02 1.42e-01f  1
  34  3.2433396e+08 4.60e+02 1.40e+01  -1.0 6.50e+03    -  2.12e-01 3.33e-01f  1
  35  3.1835933e+08 4.50e+02 1.37e+01  -1.0 3.33e+03    -  3.27e-01 2.17e-02f  1
  36  3.1829004e+08 4.50e+02 2.56e+03  -1.0 4.21e+01   5.1 1.39e-01 4.54e-04h  1
  37  3.1828580e+08 4.50e+02 1.90e+04  -1.0 4.20e+01   4.7 1.47e-02 2.90e-05h  1
  38  3.1802907e+08 4.49e+02 5.50e+04  -1.0 4.14e+01   4.2 3.86e-02 1.81e-03f  1
  39  3.1756026e+08 4.47e+02 5.95e+04  -1.0 4.42e+01   3.7 1.70e-02 3.89e-03f  1
iter    objective    inf_pr   inf_du lg(mu)  ||d||  lg(rg) alpha_du alpha_pr  ls
  40  3.1774498e+08 4.45e+02 5.77e+04  -1.0 9.55e+01   3.2 3.57e-02 4.21e-03h  1
  41  3.1811408e+08 4.45e+02 5.84e+04  -1.0 3.22e+02   2.7 5.90e-03 1.53e-03h  1
  42  3.1852257e+08 4.44e+02 1.84e+05  -1.0 1.26e+02   3.2 1.26e-01 1.62e-03h  1
  43  3.2345587e+08 4.38e+02 1.59e+05  -1.0 1.57e+02   3.6 1.04e-02 1.44e-02h  1
  44  3.2346094e+08 4.38e+02 1.59e+05  -1.0 2.49e+03   3.1 1.22e-04 5.29e-05h  1
  45  3.2347029e+08 4.38e+02 1.25e+06  -1.0 2.06e+02   3.5 1.61e-01 4.87e-05h  1
  46  3.2409240e+08 4.37e+02 1.77e+06  -1.0 1.99e+02   4.0 3.38e-02 2.24e-03h  1
  47  3.2756111e+08 4.27e+02 2.51e+06  -1.0 2.21e+02   3.5 1.91e-01 2.66e-02h  1
  48  3.2737296e+08 4.26e+02 4.82e+06  -1.0 2.37e+02   3.9 1.46e-01 2.31e-03f  1
  49  3.2601062e+08 4.15e+02 2.73e+07  -1.0 2.33e+02   4.3 5.36e-01 2.56e-02f  1
iter    objective    inf_pr   inf_du lg(mu)  ||d||  lg(rg) alpha_du alpha_pr  ls
  50  3.1974789e+08 4.00e+02 2.39e+07  -1.0 2.63e+02   3.9 2.45e-01 3.68e-02f  1
  51  3.1929377e+08 3.99e+02 2.29e+07  -1.0 2.77e+02   3.4 4.83e-02 1.90e-03f  1
  52  3.1837081e+08 3.97e+02 2.02e+07  -1.0 2.61e+02   3.8 2.45e-01 5.24e-03f  1
  53  3.0994199e+08 3.83e+02 1.95e+07  -1.0 2.77e+02   3.3 3.36e-02 3.56e-02f  1
  54  3.0969251e+08 3.82e+02 1.53e+07  -1.0 2.51e+02   3.8 4.15e-01 1.36e-03f  1
  55  3.0575489e+08 3.74e+02 2.73e+07  -1.0 2.43e+02   4.2 8.05e-01 2.29e-02f  1
  56  2.8808220e+08 3.28e+02 3.13e+07  -1.0 2.33e+02   4.6 2.62e-01 1.27e-01f  1
  57  2.8784195e+08 3.27e+02 6.62e+08  -1.0 1.78e+02   5.9 4.64e-01 1.32e-03f  1
  58  2.8715398e+08 3.26e+02 6.37e+08  -1.0 2.21e+02   5.5 2.58e-01 3.84e-03f  1
  59  2.8267069e+08 3.07e+02 8.81e+08  -1.0 2.16e+02   5.9 3.93e-01 6.52e-02f  1
iter    objective    inf_pr   inf_du lg(mu)  ||d||  lg(rg) alpha_du alpha_pr  ls
  60  2.8155066e+08 3.04e+02 9.34e+08  -1.0 1.77e+02   6.3 7.68e-02 1.09e-02f  1
  61  2.8151174e+08 3.04e+02 2.66e+09  -1.0 1.73e+02   6.7 2.85e-01 5.26e-04f  1
  62  2.8121931e+08 3.02e+02 1.27e+10  -1.0 1.70e+02   7.2 5.94e-01 7.15e-03f  1
  63  2.8315180e+08 2.87e+02 1.32e+10  -1.0 1.72e+02   7.6 9.34e-02 6.08e-02h  1
  64  2.6989388e+08 2.63e+02 1.22e+10  -1.0 1.62e+02   7.1 3.35e-02 8.97e-02f  1
  65  2.6989321e+08 2.63e+02 1.21e+11  -1.0 1.36e+02   8.5 6.01e-01 4.07e-06h  2
  66  2.6814817e+08 2.60e+02 8.85e+10  -1.0 1.43e+02   8.0 1.00e+00 1.09e-02f  1
  67  2.6419504e+08 2.54e+02 1.24e+11  -1.0 1.40e+02   8.4 1.00e+00 2.35e-02f  1
  68  2.6402838e+08 2.54e+02 7.30e+10  -1.0 1.98e+02   7.9 8.19e-01 1.15e-03f  1
  69  2.5876485e+08 2.44e+02 6.73e+10  -1.0 2.09e+02   7.4 8.33e-02 4.30e-02f  1
iter    objective    inf_pr   inf_du lg(mu)  ||d||  lg(rg) alpha_du alpha_pr  ls
  70  2.5874695e+08 2.43e+02 6.72e+10  -1.0 1.96e+02   7.0 1.61e-03 1.81e-04f  1
  71  2.5874172e+08 2.43e+02 6.72e+10  -1.0 1.94e+02   7.4 1.33e-05 4.78e-05f  1
  72  2.5873473e+08 2.43e+02 6.72e+10  -1.0 1.96e+02   6.9 1.57e-07 7.14e-05f  1
  73  2.5872710e+08 2.43e+02 6.72e+10  -1.0 1.94e+02   7.3 3.67e-08 7.09e-05f  1
  74  2.5008366e+08 2.27e+02 6.48e+10  -1.0 1.93e+02   7.8 6.54e-04 7.41e-02f  1
  75  2.5007032e+08 2.27e+02 4.26e+10  -1.0 1.70e+02   7.3 3.08e-01 1.66e-04f  1
  76  2.5000302e+08 2.27e+02 4.25e+10  -1.0 1.69e+02   7.7 1.00e+00 7.33e-04f  1
  77  2.4704199e+08 2.18e+02 3.32e+10  -1.0 1.75e+02   7.2 2.15e-01 3.99e-02f  1
  78  2.4689938e+08 2.18e+02 2.94e+10  -1.0 1.74e+02   6.8 7.80e-02 2.05e-03h  1
  79  2.4585132e+08 2.15e+02 2.81e+10  -1.0 2.05e+02   6.3 3.24e-02 1.23e-02f  1
iter    objective    inf_pr   inf_du lg(mu)  ||d||  lg(rg) alpha_du alpha_pr  ls
  80  2.4546679e+08 2.14e+02 2.41e+10  -1.0 1.73e+02   6.7 9.08e-02 5.60e-03f  1
  81  2.4448599e+08 2.11e+02 2.26e+10  -1.0 2.91e+02   6.2 3.98e-02 1.28e-02f  1
  82  2.4447317e+08 2.11e+02 1.79e+10  -1.0 1.72e+02   6.7 1.19e-01 2.11e-04f  1
  83  2.4316441e+08 2.06e+02 8.15e+09  -1.0 1.53e+02   7.1 4.86e-01 2.33e-02f  1
  84  2.4315256e+08 2.06e+02 8.05e+09  -1.0 1.70e+02   6.6 7.46e-03 2.38e-04f  1
  85  2.4312756e+08 2.06e+02 8.05e+09  -1.0 1.46e+02   7.0 1.07e-04 5.10e-04f  1
  86  2.4307394e+08 2.06e+02 8.05e+09  -1.0 1.72e+02   6.6 4.66e-07 1.07e-03f  1
  87  2.4306092e+08 2.06e+02 5.03e+10  -1.0 1.45e+02   7.9 1.00e+00 1.72e-04f  1
  88  2.4304888e+08 2.06e+02 1.14e+11  -1.0 1.45e+02   8.3 1.00e+00 1.27e-04f  1
  89  2.4199121e+08 2.03e+02 4.74e+10  -1.0 1.45e+02   7.8 1.00e+00 1.47e-02f  1
iter    objective    inf_pr   inf_du lg(mu)  ||d||  lg(rg) alpha_du alpha_pr  ls
  90  2.4150460e+08 2.00e+02 2.72e+10  -1.0 1.42e+02   7.4 4.26e-01 1.05e-02f  1
  91  2.4319644e+08 1.73e+02 1.00e+10  -1.0 1.55e+02   6.9 5.82e-01 1.36e-01h  1
  92  2.4327279e+08 1.73e+02 9.97e+09  -1.0 1.19e+02   7.3 1.89e-02 1.78e-03h  1
  93  2.4331830e+08 1.73e+02 9.97e+09  -1.0 1.28e+02   6.8 2.53e-04 7.64e-04h  1
  94  2.4336573e+08 1.73e+02 9.96e+09  -1.0 1.19e+02   7.3 1.08e-03 1.03e-03h  1
  95  2.4348228e+08 1.72e+02 9.95e+09  -1.0 1.30e+02   6.8 8.08e-04 1.87e-03h  1
  96  2.4367902e+08 1.72e+02 9.89e+09  -1.0 1.19e+02   7.2 8.90e-03 3.86e-03h  1
  97  2.4721743e+08 1.64e+02 9.39e+09  -1.0 1.32e+02   6.7 5.15e-02 4.13e-02h  1
  98  2.4725053e+08 1.64e+02 9.38e+09  -1.0 1.11e+02   7.2 1.32e-03 4.11e-04h  1
  99  2.4728905e+08 1.64e+02 9.37e+09  -1.0 6.88e+02   6.7 3.97e-04 2.88e-04h  1
iter    objective    inf_pr   inf_du lg(mu)  ||d||  lg(rg) alpha_du alpha_pr  ls
 100  2.4732285e+08 1.64e+02 9.36e+09  -1.0 1.11e+02   7.1 1.36e-03 4.09e-04h  1
 101  2.4739031e+08 1.64e+02 9.36e+09  -1.0 1.06e+02   7.5 3.17e-03 1.15e-03h  1
 102  2.4747747e+08 1.64e+02 9.35e+09  -1.0 1.11e+02   7.1 2.55e-04 1.07e-03h  1
 103  2.4749193e+08 1.64e+02 9.35e+09  -1.0 1.07e+02   7.5 4.69e-03 2.75e-04h  1
 104  2.4759552e+08 1.64e+02 9.34e+09  -1.0 1.13e+02   7.0 1.25e-03 1.37e-03h  1
 105  2.4764138e+08 1.64e+02 9.32e+09  -1.0 1.07e+02   7.4 1.06e-02 8.38e-04h  1
 106  2.4895570e+08 1.61e+02 9.27e+09  -1.0 1.14e+02   7.0 3.24e-03 1.55e-02h  1
 107  2.4921967e+08 1.61e+02 9.17e+09  -1.0 1.21e+02   6.5 1.03e-02 2.70e-03h  1
 108  2.5342808e+08 1.55e+02 9.12e+09  -1.0 1.23e+02   6.0 9.80e-03 3.58e-02h  1
 109  2.5583694e+08 1.52e+02 9.08e+09  -1.0 1.15e+02   5.5 6.26e-03 1.79e-02h  1
iter    objective    inf_pr   inf_du lg(mu)  ||d||  lg(rg) alpha_du alpha_pr  ls
 110  2.5585598e+08 1.52e+02 8.84e+09  -1.0 1.14e+02   5.0 2.26e-02 1.37e-04h  1
 111r 2.5585598e+08 1.52e+02 1.00e+03   2.2 0.00e+00   4.6 0.00e+00 2.95e-07R  6
 112r 2.5747202e+08 9.60e+01 9.17e+02   2.2 6.05e+04    -  4.14e-01 1.88e-03f  1
 113  1.4963583e+08 1.14e+02 4.25e+02  -1.0 3.12e+03    -  8.74e-01 4.74e-01f  1
 114  8.7608680e+07 6.76e+01 2.63e+02  -1.0 4.21e+02    -  8.74e-02 4.44e-01f  1
 115  7.1537119e+07 5.65e+01 2.20e+02  -1.0 7.05e+02    -  1.45e-01 1.74e-01f  1
 116  6.4990687e+07 5.22e+01 2.03e+02  -1.0 8.98e+02    -  3.57e-02 7.90e-02f  1
 117  5.7848503e+07 4.73e+01 1.84e+02  -1.0 9.61e+02    -  8.31e-02 9.73e-02f  1
 118  5.1511376e+07 4.27e+01 1.66e+02  -1.0 1.03e+03    -  2.24e-02 1.02e-01f  1
 119  5.1511661e+07 4.27e+01 2.26e+03  -1.0 6.74e+00   4.1 3.40e-02 7.44e-05h  1
iter    objective    inf_pr   inf_du lg(mu)  ||d||  lg(rg) alpha_du alpha_pr  ls
 120  5.1514816e+07 4.27e+01 1.16e+04  -1.0 1.31e+01   3.6 2.99e-02 8.31e-04h  1
 121  5.1542761e+07 4.24e+01 2.22e+04  -1.0 1.95e+01   3.1 7.95e-02 7.34e-03h  1
 122  5.1628458e+07 4.15e+01 2.30e+04  -1.0 2.07e+01   2.7 5.91e-02 2.00e-02h  1
 123  5.1715949e+07 4.07e+01 2.21e+04  -1.0 1.97e+01   2.2 5.43e-02 1.93e-02h  1
 124  5.1917475e+07 3.82e+01 2.02e+04  -1.0 1.86e+01   1.7 8.63e-02 6.16e-02h  1
 125  5.2273778e+07 3.55e+01 1.61e+04  -1.0 1.68e+01   2.1 2.65e-01 7.03e-02h  1
 126  5.2405841e+07 3.48e+01 1.61e+04  -1.0 1.49e+01   2.6 7.45e-02 2.07e-02h  1
 127  5.2488089e+07 3.43e+01 1.13e+04  -1.0 1.38e+01   2.1 3.51e-01 1.43e-02h  1
 128  5.2579441e+07 3.38e+01 1.12e+04  -1.0 1.39e+01   2.5 2.71e-02 1.28e-02h  1
 129  5.2710254e+07 3.31e+01 1.11e+04  -1.0 1.28e+01   2.0 1.25e-02 2.19e-02h  1
iter    objective    inf_pr   inf_du lg(mu)  ||d||  lg(rg) alpha_du alpha_pr  ls
 130  5.2854932e+07 3.24e+01 1.11e+04  -1.0 1.28e+01   2.5 1.14e-01 1.88e-02h  1
 131  5.3269475e+07 3.02e+01 1.09e+04  -1.0 1.54e+01   2.0 1.79e-02 7.00e-02h  1
 132  5.3431804e+07 2.96e+01 1.05e+04  -1.0 1.32e+01   2.4 2.81e-01 2.00e-02h  1
 133  5.3580472e+07 2.78e+01 5.98e+03  -1.0 1.66e+01   1.9 3.74e-01 6.33e-02h  1
 134  5.3903421e+07 2.56e+01 5.48e+03  -1.0 1.32e+01   2.3 2.01e-02 8.05e-02h  1
 135  5.3883472e+07 2.54e+01 5.37e+03  -1.0 2.41e+01   1.9 1.44e-02 6.40e-03h  1
 136  5.3863946e+07 2.52e+01 5.21e+03  -1.0 1.24e+01   2.3 4.56e-02 1.06e-02h  1
 137  5.3865616e+07 2.47e+01 7.06e+03  -1.0 1.16e+01   2.7 1.64e-01 2.04e-02h  1
 138  5.3793123e+07 2.38e+01 6.76e+03  -1.0 1.23e+01   2.2 4.23e-02 3.49e-02h  1
 139  5.3792200e+07 2.38e+01 9.00e+03  -1.0 1.14e+01   2.7 3.59e-01 1.44e-03h  1
iter    objective    inf_pr   inf_du lg(mu)  ||d||  lg(rg) alpha_du alpha_pr  ls
 140  5.3766384e+07 2.34e+01 8.56e+03  -1.0 1.39e+01   2.2 4.40e-02 1.47e-02h  1
 141  5.3762185e+07 2.33e+01 8.88e+03  -1.0 1.15e+01   2.6 2.62e-01 6.15e-03h  1
 142  5.3569540e+07 2.10e+01 9.16e+03  -1.0 1.68e+01   2.1 9.08e-04 1.08e-01f  1
 143  5.3566498e+07 2.09e+01 9.14e+03  -1.0 1.06e+01   2.6 3.30e-03 2.02e-03h  1
 144  5.3566338e+07 2.09e+01 2.35e+04  -1.0 1.03e+01   3.0 8.59e-01 1.38e-04h  1
 145  5.3427116e+07 1.91e+01 2.30e+04  -1.0 1.07e+01   2.5 8.54e-03 9.53e-02f  1
 146  5.3425669e+07 1.90e+01 2.29e+04  -1.0 9.69e+00   2.9 1.15e-02 1.37e-03h  1
 147  5.3390891e+07 1.86e+01 2.29e+04  -1.0 4.60e+01   2.5 7.51e-05 2.67e-02f  1
 148  5.3385342e+07 1.85e+01 1.21e+04  -1.0 9.44e+00   2.9 1.00e+00 5.78e-03h  1
 149  5.3352867e+07 1.80e+01 1.00e+04  -1.0 9.54e+00   2.4 1.54e-01 2.83e-02f  1
iter    objective    inf_pr   inf_du lg(mu)  ||d||  lg(rg) alpha_du alpha_pr  ls
 150  5.3523619e+07 1.74e+01 1.00e+04  -1.0 4.29e+01   1.9 1.24e-02 3.34e-02h  1
 151  5.3048193e+07 1.26e+01 3.72e+03  -1.0 8.91e+00   2.4 6.03e-01 2.99e-01f  1
 152  5.3043097e+07 1.22e+01 3.72e+03  -1.0 6.21e+00   2.8 3.16e-01 3.61e-02h  1
 153  5.3019231e+07 1.13e+01 3.69e+03  -1.0 6.07e+00   2.3 7.00e-03 7.45e-02f  1
 154  5.3019314e+07 1.13e+01 3.48e+03  -1.0 5.58e+00   2.7 1.47e-01 1.64e-03h  1
 155  5.2975604e+07 9.17e+00 3.60e+03  -1.0 6.44e+00   2.3 1.12e-02 2.07e-01f  1
 156  5.2975499e+07 9.16e+00 3.41e+03  -1.0 1.04e+02   1.8 1.30e-02 1.41e-03h  1
 157  5.2986546e+07 7.05e+00 1.32e+03  -1.0 5.05e+00   2.2 7.11e-01 2.58e-01h  1
 158  5.2991391e+07 7.00e+00 1.32e+03  -1.0 3.18e+00   2.6 5.01e-02 7.51e-03f  1
 159  5.3584898e+07 6.58e+00 1.27e+03  -1.0 1.91e+01   2.2 2.65e-04 6.01e-02f  1
iter    objective    inf_pr   inf_du lg(mu)  ||d||  lg(rg) alpha_du alpha_pr  ls
 160  5.3597365e+07 6.50e+00 1.27e+03  -1.0 2.95e+00   2.6 4.92e-02 1.33e-02h  1
 161  5.3597734e+07 6.36e+00 1.30e+03  -1.0 2.86e+00   3.0 2.47e-01 2.06e-02h  1
 162  5.3700128e+07 5.76e+00 1.27e+03  -1.0 2.85e+00   2.5 2.80e-02 9.67e-02f  1
 163  5.3699288e+07 5.66e+00 1.29e+03  -1.0 2.51e+00   3.0 9.51e-02 1.79e-02f  1
 164  5.4029029e+07 3.43e+00 1.07e+03  -1.0 2.51e+00   2.5 4.38e-02 4.26e-01f  1
 165  5.4025584e+07 3.39e+00 1.07e+03  -1.0 1.37e+00   2.9 8.48e-02 1.02e-02f  1
 166  5.3864051e+07 1.84e+00 7.91e+02  -1.0 1.37e+00   2.4 2.29e-01 4.66e-01f  1
 167  5.3066086e+07 8.47e-01 1.05e+03  -1.0 1.68e+00   2.0 2.88e-01 8.29e-01f  1
 168  5.2660593e+07 8.64e-02 5.54e+02  -1.0 6.12e-01   2.4 5.44e-01 1.00e+00f  1
 169  5.1641129e+07 1.33e-02 1.31e+02  -1.0 1.61e+00   1.9 9.73e-01 1.00e+00f  1
iter    objective    inf_pr   inf_du lg(mu)  ||d||  lg(rg) alpha_du alpha_pr  ls
 170  4.9503061e+07 5.20e-02 9.80e+01  -1.0 3.53e+00   1.4 9.94e-01 1.00e+00f  1
 171  4.5865404e+07 5.72e-02 5.82e+01  -1.0 5.70e+00   1.0 9.84e-01 1.00e+00f  1
 172  4.0905927e+07 1.95e-02 2.66e+01  -1.0 6.64e+00   0.5 1.00e+00 1.00e+00f  1
 173  3.5912498e+07 0.00e+00 9.41e+00  -1.0 5.49e+00  -0.0 8.46e-01 1.00e+00f  1
 174  3.1407564e+07 0.00e+00 3.27e+00  -1.0 5.40e+00  -0.5 8.18e-01 1.00e+00f  1
 175  3.0118257e+07 0.00e+00 1.72e+00  -1.0 1.94e+00  -0.1 1.00e+00 1.00e+00f  1
 176  2.7463039e+07 0.00e+00 1.08e+00  -1.0 3.35e+00  -0.5 1.00e+00 1.00e+00f  1
 177  2.6368837e+07 0.00e+00 9.14e-01  -1.0 1.15e+00  -0.1 1.00e+00 1.00e+00f  1
 178  2.2825069e+07 1.91e+00 9.45e-01  -1.7 2.13e+00  -0.6 8.46e-01 1.00e+00f  1
 179  2.1512059e+07 0.00e+00 5.57e-01  -1.7 8.46e-01  -0.2 6.14e-01 1.00e+00f  1
iter    objective    inf_pr   inf_du lg(mu)  ||d||  lg(rg) alpha_du alpha_pr  ls
 180  1.9466965e+07 1.33e-02 5.00e-01  -1.7 1.66e+00  -0.6 9.20e-01 5.79e-01f  1
 181  1.8407052e+07 0.00e+00 3.63e-01  -1.7 5.82e-01  -0.2 1.00e+00 1.00e+00f  1
 182  1.6090818e+07 4.58e-01 3.02e-01  -1.7 1.45e+00  -0.7 7.85e-01 9.57e-01f  1
 183  1.5085319e+07 0.00e+00 2.85e-01  -1.7 6.03e-01  -0.3 1.00e+00 1.00e+00f  1
 184  1.3058014e+07 5.14e-01 4.46e-01  -1.7 1.75e+00  -0.7 1.00e+00 1.00e+00f  1
 185  1.2491690e+07 0.00e+00 2.71e-01  -1.7 8.99e-01  -0.3 1.00e+00 1.00e+00f  1
 186  1.1106661e+07 2.21e-01 3.07e-01  -1.7 1.60e+00  -0.8 1.00e+00 1.00e+00f  1
 187  1.0549253e+07 0.00e+00 2.53e-01  -1.7 5.80e-01  -0.4 1.00e+00 1.00e+00f  1
 188  9.2422379e+06 0.00e+00 2.64e-01  -1.7 1.81e+00  -0.8 1.00e+00 1.00e+00f  1
 189  8.7304586e+06 0.00e+00 2.68e-01  -1.7 6.92e-01  -0.4 1.00e+00 1.00e+00f  1
iter    objective    inf_pr   inf_du lg(mu)  ||d||  lg(rg) alpha_du alpha_pr  ls
 190  8.2493211e+06 0.00e+00 3.78e-01  -1.7 2.78e+00  -0.9 5.72e-01 3.88e-01f  1
 191  7.8256969e+06 1.07e-02 9.19e-01  -1.7 2.44e+00  -0.5 1.00e+00 8.92e-01f  1
 192  7.0873041e+06 3.07e+00 1.88e+00  -1.7 5.63e+00  -0.9 7.57e-01 5.95e-01f  1
 193  7.0057345e+06 4.17e-01 6.21e+00  -1.7 1.99e+00   0.4 2.54e-01 1.00e+00f  1
 194  6.9842692e+06 1.40e-01 1.05e+01  -1.7 1.61e+00   0.8 6.30e-01 1.00e+00f  1
 195  6.9759832e+06 0.00e+00 3.03e+00  -1.7 1.96e-01   1.2 1.00e+00 1.00e+00f  1
 196  6.9511212e+06 0.00e+00 4.12e-01  -1.7 4.90e-02   0.8 1.00e+00 1.00e+00f  1
 197  6.8772226e+06 0.00e+00 3.56e-01  -1.7 1.83e-01   0.3 1.00e+00 1.00e+00f  1
 198  6.6622499e+06 0.00e+00 2.71e-01  -1.7 5.07e-01  -0.2 1.00e+00 1.00e+00f  1
 199  6.0721506e+06 0.00e+00 2.79e-01  -1.7 9.89e-01  -0.7 1.00e+00 1.00e+00f  1
iter    objective    inf_pr   inf_du lg(mu)  ||d||  lg(rg) alpha_du alpha_pr  ls
 200  5.8430493e+06 0.00e+00 4.50e-01  -1.7 5.41e-01  -0.2 1.00e+00 1.00e+00f  1
 201  5.2676528e+06 0.00e+00 6.54e-01  -1.7 8.96e-01  -0.7 1.00e+00 1.00e+00f  1
 202  5.0469611e+06 0.00e+00 1.49e-01  -1.7 8.75e-01  -0.3 1.00e+00 1.00e+00f  1
 203  4.5358433e+06 0.00e+00 1.31e-01  -1.7 7.69e-01  -0.8 1.00e+00 1.00e+00f  1
 204  4.1204822e+06 4.39e-04 1.24e-01  -2.5 2.02e+00  -1.2 8.85e-01 4.11e-01f  1
 205  3.0208303e+06 3.45e-01 9.35e-02  -2.5 4.52e+00  -1.7 5.38e-01 7.87e-01f  1
 206  2.7487749e+06 1.16e+00 2.91e-01  -2.5 2.68e+00  -1.3 1.00e+00 1.00e+00f  1
 207  2.7462592e+06 2.80e+00 3.05e-01  -2.5 8.22e+02  -1.8 6.79e-03 2.41e-03f  1
 208  2.5259102e+06 7.52e-03 1.41e-01  -2.5 2.84e+00  -1.3 1.00e+00 9.65e-01f  1
 209  2.1473929e+06 1.23e-01 1.91e-01  -2.5 5.85e+00  -1.8 1.00e+00 8.83e-01f  1
iter    objective    inf_pr   inf_du lg(mu)  ||d||  lg(rg) alpha_du alpha_pr  ls
 210  2.0982922e+06 1.05e-01 1.56e-01  -2.5 2.11e+00  -1.4 1.00e+00 3.58e-01f  1
 211  1.7876302e+06 2.10e-02 7.81e-02  -2.5 4.65e+00  -1.9 1.00e+00 1.00e+00f  1
 212  1.7703961e+06 1.59e-01 2.23e-01  -2.5 4.54e-01  -0.5 1.00e+00 1.00e+00h  1
 213  1.7371704e+06 3.11e-02 5.83e-02  -2.5 6.07e-01  -1.0 1.00e+00 8.52e-01f  1
 214  1.6322025e+06 0.00e+00 5.55e-02  -2.5 1.77e+00  -1.5 1.00e+00 1.00e+00f  1
 215  1.5940850e+06 0.00e+00 5.47e-02  -2.5 6.53e-01  -1.1 1.00e+00 1.00e+00f  1
 216  1.4934125e+06 0.00e+00 5.28e-02  -2.5 1.89e+00  -1.6 1.00e+00 1.00e+00f  1
 217  1.2526877e+06 2.12e-02 4.77e-02  -2.5 5.12e+00  -2.0 1.00e+00 1.00e+00f  1
 218  1.1451394e+06 0.00e+00 4.57e-02  -2.5 1.84e+00  -1.6 1.00e+00 1.00e+00f  1
 219  1.0927349e+06 5.05e-02 4.51e-02  -2.5 6.81e-01  -1.2 1.00e+00 1.00e+00f  1
iter    objective    inf_pr   inf_du lg(mu)  ||d||  lg(rg) alpha_du alpha_pr  ls
 220  1.0215859e+06 0.00e+00 4.33e-02  -2.5 1.96e+00  -1.7 1.00e+00 1.00e+00f  1
 221  1.0027268e+06 0.00e+00 4.25e-02  -2.5 7.23e-01  -1.2 1.00e+00 1.00e+00h  1
 222  9.4610888e+05 0.00e+00 4.07e-02  -2.5 2.07e+00  -1.7 1.00e+00 1.00e+00f  1
 223  8.0981827e+05 5.00e-02 3.57e-02  -2.5 5.46e+00  -2.2 1.00e+00 1.00e+00f  1
 224  7.6241542e+05 0.00e+00 3.37e-02  -2.5 1.94e+00  -1.8 1.00e+00 1.00e+00f  1
 225  6.5378729e+05 2.05e+02 1.22e+00  -2.5 1.50e+01  -2.2 3.91e-01 1.00e+00f  1
 226  6.1453437e+05 3.86e+01 1.96e-01  -2.5 7.67e+00  -1.8 7.66e-01 1.00e+00h  1
 227  5.2686448e+05 3.10e+01 1.08e-01  -2.5 6.50e+00  -2.3 8.69e-01 1.00e+00f  1
 228  4.9618635e+05 1.97e-01 6.18e-02  -2.5 3.05e+00  -1.9 9.14e-01 1.00e+00f  1
 229  4.8532153e+05 3.12e+00 1.17e-01  -2.5 4.37e+00  -1.4 1.00e+00 1.00e+00h  1
iter    objective    inf_pr   inf_du lg(mu)  ||d||  lg(rg) alpha_du alpha_pr  ls
 230  4.5699651e+05 2.40e-01 3.36e-02  -2.5 2.74e+00  -1.9 1.00e+00 1.00e+00f  1
 231  2.3797656e+05 1.72e+01 1.23e-01  -2.5 4.67e+03    -  2.09e-01 3.69e-01f  1
 232  1.9959888e+05 6.17e-02 1.83e-02  -2.5 5.47e+00  -2.4 7.93e-01 1.00e+00h  1
 233  1.5546739e+05 4.47e-01 1.24e-02  -2.5 9.13e+00  -2.9 1.00e+00 1.00e+00f  1
 234  1.0658620e+05 7.65e-01 1.25e-02  -2.5 2.77e+01  -3.3 1.00e+00 1.00e+00f  1
 235  1.0297873e+05 0.00e+00 8.11e-02  -2.5 2.74e+00  -2.0 1.00e+00 1.00e+00h  1
 236  9.9028017e+04 0.00e+00 1.74e-02  -2.5 3.85e+00  -2.5 1.00e+00 1.00e+00h  1
 237  8.8433998e+04 0.00e+00 1.22e-02  -2.5 1.13e+01  -3.0 1.00e+00 1.00e+00h  1
 238  7.0532038e+04 0.00e+00 1.13e-02  -2.5 3.15e+01  -3.4 1.00e+00 1.00e+00h  1
 239  6.4396927e+04 0.00e+00 1.09e-02  -2.5 1.14e+01  -3.0 1.00e+00 1.00e+00h  1
iter    objective    inf_pr   inf_du lg(mu)  ||d||  lg(rg) alpha_du alpha_pr  ls
 240  6.2979816e+04 0.00e+00 1.08e-02  -2.5 4.22e+00  -2.6 1.00e+00 1.00e+00h  1
 241  6.0338535e+04 0.00e+00 1.03e-02  -2.5 1.22e+01  -3.1 1.00e+00 1.00e+00h  1
 242  5.9512858e+04 0.00e+00 1.02e-02  -2.5 4.49e+00  -2.6 1.00e+00 1.00e+00h  1
 243  5.9232599e+04 0.00e+00 1.01e-02  -2.5 1.68e+00  -2.2 1.00e+00 1.00e+00h  1
 244  5.8580848e+04 0.00e+00 9.94e-03  -2.5 4.94e+00  -2.7 1.00e+00 1.00e+00h  1
 245  5.8345874e+04 0.00e+00 9.87e-03  -2.5 1.84e+00  -2.3 1.00e+00 1.00e+00h  1
 246  5.7805737e+04 0.00e+00 9.67e-03  -2.5 5.40e+00  -2.7 1.00e+00 1.00e+00h  1
 247  5.6887744e+04 0.00e+00 9.09e-03  -2.5 1.52e+01  -3.2 1.00e+00 1.00e+00h  1
 248  5.6542541e+04 0.00e+00 8.88e-03  -2.5 5.59e+00  -2.8 1.00e+00 1.00e+00h  1
 249  5.6432196e+04 0.00e+00 8.80e-03  -2.5 2.08e+00  -2.4 1.00e+00 1.00e+00h  1
iter    objective    inf_pr   inf_du lg(mu)  ||d||  lg(rg) alpha_du alpha_pr  ls
 250  5.6218274e+04 0.00e+00 8.57e-03  -2.5 6.06e+00  -2.8 1.00e+00 1.00e+00h  1
 251  5.5934472e+04 0.00e+00 7.92e-03  -2.5 1.68e+01  -3.3 1.00e+00 1.00e+00h  1
 252  5.5697269e+04 0.00e+00 7.69e-03  -2.5 6.12e+00  -2.9 1.00e+00 1.00e+00h  1
 253  5.6407657e+04 0.00e+00 7.04e-03  -2.5 1.68e+01  -3.4 1.00e+00 1.00e+00h  1
 254  5.8106576e+04 0.00e+00 6.80e-03  -2.5 6.09e+00  -3.0 1.00e+00 1.00e+00h  1
 255  5.7886289e+04 0.00e+00 1.40e-01  -2.5 1.66e+01  -3.4 4.99e-01 1.00e+00h  1
 256  6.1491952e+04 1.70e-01 3.93e-02  -2.5 3.81e+01  -3.9 7.90e-01 1.00e+00h  1
 257  5.2826567e+04 0.00e+00 1.14e-02  -2.5 1.77e+00  -2.6 1.00e+00 1.00e+00h  1
 258  5.8674220e+04 0.00e+00 1.04e-02  -2.5 5.12e+00  -3.1 1.00e+00 5.00e-01h  2
 259  5.4863929e+04 0.00e+00 4.55e-03  -2.5 1.93e+00  -2.6 1.00e+00 1.00e+00h  1
iter    objective    inf_pr   inf_du lg(mu)  ||d||  lg(rg) alpha_du alpha_pr  ls
 260  5.4569489e+04 0.00e+00 4.60e-03  -2.5 5.59e+00  -3.1 1.00e+00 1.00e+00h  1
 261  5.4593285e+04 0.00e+00 9.28e-03  -2.5 2.08e+00  -2.7 1.00e+00 1.00e+00h  1
 262  5.5097508e+04 5.99e+00 6.20e-02  -2.5 1.01e+01  -3.2 1.00e+00 1.00e+00h  1
 263  5.5185572e+04 0.00e+00 2.15e-02  -2.5 4.71e+00  -2.7 1.00e+00 9.95e-01h  1
 264  5.5244029e+04 1.33e+00 1.46e-01  -2.5 6.05e+00  -2.3 1.00e+00 1.00e+00h  1
 265  5.5326287e+04 0.00e+00 5.42e-02  -2.5 2.24e+00  -1.9 1.00e+00 1.00e+00h  1
 266  5.5325165e+04 0.00e+00 1.71e-02  -2.5 3.87e+00  -2.4 1.00e+00 1.00e+00h  1
 267  5.5453330e+04 0.00e+00 1.37e-02  -2.5 2.44e+00  -2.8 1.00e+00 1.00e+00h  1
 268  5.5493998e+04 0.00e+00 3.80e-03  -2.5 9.81e-01  -2.4 1.00e+00 1.00e+00h  1
 269  5.5649098e+04 0.00e+00 8.79e-03  -2.5 2.83e+00  -2.9 1.00e+00 1.00e+00h  1
iter    objective    inf_pr   inf_du lg(mu)  ||d||  lg(rg) alpha_du alpha_pr  ls
 270  5.6531288e+04 3.29e+02 1.36e-01  -2.5 1.86e+01  -3.4 4.22e-01 1.00e+00h  1
 271  5.6084162e+04 7.25e+01 5.92e-02  -2.5 9.44e+00  -2.0 1.00e+00 1.00e+00h  1
 272  5.6046739e+04 7.34e+00 3.71e-02  -2.5 4.85e+00  -2.5 7.89e-01 1.00e+00h  1
 273  5.6098773e+04 0.00e+00 5.91e-03  -2.5 3.43e+00  -3.0 1.00e+00 1.00e+00h  1
 274  5.5704285e+04 8.35e+00 2.86e-02  -2.5 8.50e+00  -3.5 8.46e-01 1.00e+00h  1
 275  4.6929961e+04 0.00e+00 6.62e-03  -2.5 3.07e+00  -3.0 1.00e+00 1.00e+00h  1
 276  3.7314098e+04 0.00e+00 2.26e-02  -2.5 2.98e+00  -2.6 1.00e+00 1.00e+00h  1
 277  4.0966099e+04 0.00e+00 8.04e-03  -2.5 1.28e+00  -2.2 1.00e+00 1.00e+00h  1
 278  3.9466674e+04 0.00e+00 3.22e-03  -2.5 1.25e+00  -2.7 1.00e+00 1.00e+00h  1
 279  3.8314975e+04 0.00e+00 3.84e-03  -2.5 6.61e-01  -2.2 1.00e+00 1.00e+00h  1
iter    objective    inf_pr   inf_du lg(mu)  ||d||  lg(rg) alpha_du alpha_pr  ls
 280  3.6134710e+04 0.00e+00 2.66e-03  -2.5 1.37e+00  -2.7 1.00e+00 1.00e+00h  1
 281  3.3209325e+04 0.00e+00 2.52e-03  -2.5 3.92e+00  -3.2 1.00e+00 1.00e+00h  1
 282  3.0232455e+04 0.00e+00 2.18e-03  -2.5 1.02e+01  -3.7 1.00e+00 1.00e+00h  1
 283  2.9803928e+04 0.00e+00 2.06e-03  -2.5 3.60e+00  -3.2 1.00e+00 1.00e+00h  1
 284  2.8406427e+04 0.00e+00 5.78e-03  -2.5 9.22e+00  -3.7 1.00e+00 1.00e+00h  1
 285  2.8433438e+04 0.00e+00 8.47e-03  -2.5 1.33e+00  -2.4 1.00e+00 1.00e+00h  1
 286  2.8268507e+04 0.00e+00 3.59e-03  -2.5 1.25e+00  -2.9 1.00e+00 1.00e+00h  1
 287  2.7862326e+04 0.00e+00 1.59e-03  -2.5 3.51e+00  -3.3 1.00e+00 1.00e+00h  1
 288  2.7921636e+04 1.56e+02 2.02e-01  -2.5 8.89e+01  -3.8 7.44e-02 3.85e-01h  2
 289  2.7505813e+04 1.67e+01 4.83e-02  -2.5 9.68e+00  -3.4 1.00e+00 1.00e+00h  1
iter    objective    inf_pr   inf_du lg(mu)  ||d||  lg(rg) alpha_du alpha_pr  ls
 290  2.7255986e+04 0.00e+00 1.35e-01  -2.5 3.49e+01  -3.9 1.00e+00 7.80e-01h  1
 291  2.6724697e+04 9.90e+00 1.76e-01  -2.5 4.29e+01  -3.4 2.22e-01 1.00e+00h  1
 292  2.6756550e+04 0.00e+00 3.17e-02  -2.5 1.27e+01  -3.0 1.00e+00 1.00e+00h  1
 293  2.6713807e+04 0.00e+00 3.47e-01  -2.5 7.36e+00  -1.7 1.00e+00 5.00e-01h  2
 294  2.6694778e+04 0.00e+00 1.89e+00  -2.5 1.03e+01  -1.3 3.07e-01 5.00e-01h  2
 295  2.6805563e+04 0.00e+00 4.69e-01  -2.5 2.08e+01  -1.7 1.00e+00 1.00e+00h  1
 296  2.6661311e+04 0.00e+00 4.78e+00  -2.5 7.82e+00  -0.4 1.00e+00 1.00e+00h  1
 297  1.8197841e+04 0.00e+00 2.34e-02  -2.5 3.07e+03    -  7.92e-01 1.00e+00f  1
 298  1.8341067e+04 0.00e+00 2.77e-02  -2.5 2.16e-01  -0.9 1.00e+00 1.00e+00h  1
 299  1.8319490e+04 0.00e+00 4.34e-03  -2.5 1.00e-01  -1.4 1.00e+00 1.00e+00h  1
iter    objective    inf_pr   inf_du lg(mu)  ||d||  lg(rg) alpha_du alpha_pr  ls
 300  1.8179282e+04 0.00e+00 3.71e-03  -3.8 2.53e-01  -1.8 1.00e+00 1.00e+00h  1
 301  1.7842446e+04 0.00e+00 2.73e-03  -3.8 5.73e-01  -2.3 1.00e+00 1.00e+00h  1
 302  1.7060803e+04 0.00e+00 1.81e-03  -3.8 1.14e+00  -2.8 1.00e+00 1.00e+00h  1
 303  1.5315767e+04 0.00e+00 1.58e-03  -3.8 1.69e+00  -3.3 1.00e+00 1.00e+00h  1
 304  1.2119176e+04 0.00e+00 1.23e-03  -3.8 2.66e+00  -3.8 1.00e+00 1.00e+00h  1
 305  7.7301293e+03 0.00e+00 7.53e-04  -3.8 4.47e+00  -4.2 1.00e+00 1.00e+00h  1
 306  5.5729425e+03 0.00e+00 6.36e-04  -3.8 4.52e+02    -  1.00e+00 1.87e-01h  1
 307  1.9841310e+03 0.00e+00 4.72e-04  -3.8 3.94e+02    -  6.52e-01 7.49e-01h  1
 308  1.0093477e+03 0.00e+00 2.57e-04  -3.8 1.89e+02    -  1.00e+00 1.00e+00h  1
 309  1.0707235e+03 0.00e+00 1.70e-05  -3.8 9.18e+01    -  1.00e+00 1.00e+00h  1
iter    objective    inf_pr   inf_du lg(mu)  ||d||  lg(rg) alpha_du alpha_pr  ls
 310  1.0663904e+03 0.00e+00 5.03e-06  -3.8 6.10e+01    -  1.00e+00 1.00e+00h  1
 311  1.0662675e+03 0.00e+00 1.49e-06  -3.8 4.07e+01    -  1.00e+00 1.00e+00h  1
 312  3.2060298e+02 0.00e+00 1.22e-04  -5.7 2.73e+01    -  1.00e+00 9.93e-01f  1
 313  9.3986883e+01 0.00e+00 6.78e-05  -5.7 1.82e+01    -  1.00e+00 1.00e+00h  1
 314  3.4887898e+01 0.00e+00 2.93e-05  -5.7 1.21e+01    -  1.00e+00 1.00e+00h  1
 315  2.1282294e+01 0.00e+00 3.62e-06  -5.7 8.06e+00    -  1.00e+00 1.00e+00h  1
 316  1.9412984e+01 0.00e+00 1.50e-07  -5.7 5.37e+00    -  1.00e+00 1.00e+00h  1
 317  1.9361332e+01 0.00e+00 1.02e-09  -5.7 3.58e+00    -  1.00e+00 1.00e+00h  1
 318  9.3438453e+00 0.00e+00 3.96e-06  -8.6 2.39e+00    -  9.88e-01 1.00e+00h  1
 319  6.6012404e+00 2.22e-05 1.86e-06  -8.6 1.59e+00    -  1.00e+00 9.90e-01h  1
iter    objective    inf_pr   inf_du lg(mu)  ||d||  lg(rg) alpha_du alpha_pr  ls
 320  5.8790313e+00 0.00e+00 8.28e-07  -8.6 1.07e+00    -  1.00e+00 1.00e+00h  1
 321  5.7034770e+00 0.00e+00 3.32e-07  -8.6 7.11e-01    -  1.00e+00 1.00e+00h  1
 322  5.6618370e+00 0.00e+00 1.05e-07  -8.6 4.74e-01    -  1.00e+00 1.00e+00h  1
 323  5.6533253e+00 0.00e+00 1.52e-08  -8.6 3.16e-01    -  1.00e+00 1.00e+00h  1
 324  5.6525124e+00 0.00e+00 2.74e-10  -8.6 2.11e-01    -  1.00e+00 1.00e+00h  1

Number of Iterations....: 324

                                   (scaled)                 (unscaled)
Objective...............:   2.1740432117879384e-03    5.6525123506486397e+00
Dual infeasibility......:   2.7375716698832193e-10    7.1176863416963703e-07
Constraint violation....:   0.0000000000000000e+00    0.0000000000000000e+00
Complementarity.........:   2.5067120621683969e-09    6.5174513616378318e-06
Overall NLP error.......:   2.5067120621683969e-09    6.5174513616378318e-06


Number of objective function evaluations             = 346
Number of objective gradient evaluations             = 324
Number of equality constraint evaluations            = 0
Number of inequality constraint evaluations          = 346
Number of equality constraint Jacobian evaluations   = 0
Number of inequality constraint Jacobian evaluations = 327
Number of Lagrangian Hessian evaluations             = 324
Total CPU secs in IPOPT (w/o function evaluations)   =      4.650
Total CPU secs in NLP function evaluations           =      1.117

EXIT: Optimal Solution Found.

************************ CUTEst statistics ************************


 Package used            :  IPOPT
 Problem                 :  LUKVLI15  
 # variables             =            9997
 # constraints           =            7497
 # objective functions   =        0.6710000E+03
 # objective gradients   =        0.3250000E+03
 # objective Hessians    =        0.3230000E+03
 # Hessian-vector prdct  =        0.0000000E+00
 # constraints functions =        0.6750000E+03
 # constraints gradients =        0.3290000E+03
 # constraints Hessians  =        0.3230000E+03
 Exit code               =               0
 Final f                 =   0.5652512E+01
 Set up time             =            0.24 seconds
 Solve time              =            5.84 seconds


******************************************************************

System Time =       5.7870001793 s.
